c WARNING: for repeatability, setting FPU to use double precision
c ============================[ Problem Statistics ]=============================
c |                                                                             |
c |  Number of variables:           250                                         |
c |  Number of clauses:            1065                                         |
c |  Parse time:                   0.00 s                                       |
c |  Eliminated clauses:           0.00 Mb                                      |
c |  Simplification time:          0.00 s                                       |
c |                                                                             |
c ============================[ Search Statistics ]==============================
c | Conflicts |          ORIGINAL         |          LEARNT          | Progress |
c |           |    Vars  Clauses Literals |    Limit  Clauses Lit/Cl |          |
c ===============================================================================
c |      5000 |     244     1060     3214 |      775     4368     14 |  0.002 % | 8 625 | 0 0.8 (0.8) 1.4 (1.4) 5 (5-10) 15000 0.02
c |     10000 |     244     1060     3214 |     1602     8710     14 |  0.002 % | 9 1111 | 0 0.8 (0.8) 1.4 (1.4) 5 (5-10) 15000 0.02
c |     15000 |     244     1060     3214 |     2399    13129     13 |  0.002 % | 9 1666 | 0 0.8 (0.8) 1.4 (1.4) 5 (5-10) 15000 0.02
c |     20000 |     244     1060     3214 |     3120    17005     14 |  0.002 % | 9 2222 | 0 0.8 (0.8) 1.4 (1.4) 5 (5-10) 15000 0.02
c |     25000 |     244     1060     3214 |     4057    21345     13 |  0.002 % | 9 2777 | 0 0.8 (0.8) 1.4 (1.4) 5 (5-10) 15000 0.02
c |     30000 |     244     1060     3214 |     4836    25797     13 |  0.002 % | 10 3000 | 0 0.8 (0.8) 1.4 (1.4) 5 (5-10) 15000 0.02
c |     35000 |     244     1060     3214 |     5782    15672     12 |  0.003 % | 10 3500 | 0 0.8 (0.8) 1.4 (1.4) 5 (5-10) 15000 0.02
c |     40000 |     244     1060     3214 |     6619    20051     12 |  0.002 % | 12 3333 | 0 0.8 (0.8) 1.4 (1.4) 5 (5-10) 15000 0.02
c |     45000 |     244     1060     3214 |     7262    24537     12 |  0.002 % | 25 1800 | 0 0.8 (0.8) 1.4 (1.4) 5 (5-10) 15000 0.02
c |     50000 |     244     1060     3214 |     8020    15487     12 |  0.002 % | 27 1851 | 0 0.8 (0.8) 1.4 (1.4) 5 (5-10) 15000 0.02
c |     55000 |     244     1060     3214 |     8676    20027     12 |  0.002 % | 29 1896 | 0 0.8 (0.8) 1.4 (1.4) 5 (5-10) 15000 0.02
c |     60000 |     244     1060     3214 |     9385    24555     12 |  0.002 % | 30 2000 | 0 0.8 (0.8) 1.4 (1.4) 5 (5-10) 15000 0.02
c |     65000 |     244     1060     3214 |    10139    15666     11 |  0.002 % | 30 2166 | 0 0.8 (0.8) 1.4 (1.4) 5 (5-10) 15000 0.02
c |     70000 |     244     1060     3214 |    11132    19957     11 |  0.003 % | 30 2333 | 0 0.8 (0.8) 1.4 (1.4) 5 (5-10) 15000 0.02
c |     75000 |     244     1060     3214 |    11732    24544     12 |  0.002 % | 41 1829 | 0 0.8 (0.8) 1.4 (1.4) 5 (5-10) 15000 0.02
c |     80000 |     244     1060     3214 |    12356    15779     11 |  0.002 % | 43 1860 | 0 0.8 (0.8) 1.4 (1.4) 5 (5-10) 15000 0.02
c |     85000 |     244     1060     3214 |    13171    20166     11 |  0.003 % | 43 1976 | 0 0.8 (0.8) 1.4 (1.4) 5 (5-10) 15000 0.02
c ===============================================================================
c restarts              : 43
c conflicts             : 89887          (38189 /sec)
c decisions             : 104459         (0.00 % random) (44380 /sec)
c propagations          : 3676519        (1562007 /sec)
c conflict literals     : 1159889        (26.77 % deleted)
c Memory used           : 9.00 MB
c CPU time              : 2.35372 s
c 
s UNKNOWN
